100 199
12 15 4
11 35 2
10 35 2
10 13 2
10 36 2
31 36 6
12 33 1
13 19 1
13 17 1
6 19 1
5 25 2
10 24 1
5 6 1
11 16 4
15 33 1
6 33 1
6 16 2
8 19 2
8 13 2
8 9 1
8 10 1
7 32 2
6 18 2
5 9 1
8 11 1
9 26 2
9 18 2
9 17 6
11 14 2
12 17 2
12 32 1
12 30 1
5 14 1
12 19 1
12 29 1
14 34 1
12 27 1
11 22 1
11 32 1
13 22 1
13 21 1
12 16 1
13 14 1
7 28 1
18 30 1
13 16 1
11 31 1
10 31 1
15 32 1
8 33 1
8 15 2
11 29 2
4 29 2
6 11 1
9 29 1
7 16 4
7 15 4
7 18 2
8 20 9
10 15 2
5 11 1
5 22 2
4 18 2
7 9 5
6 40 1
8 8 1
5 23 2
4 23 2
5 26 2
9 21 8
4 7 1
10 32 1
4 32 1
9 20 1
5 28 2
5 20 2
6 27 6
10 12 2
5 16 2
7 31 3
5 21 2
4 19 2
6 9 2
7 13 2
13 23 2
11 13 2
9 13 2
11 25 4
10 26 8
7 19 1
7 12 2
7 17 4
11 30 2
10 22 1
14 18 1
18 19 1
18 22 1
10 20 1
8 27 2
20 34 1
50 100 
50 100 
50 100 
50 100 
50 100 
50 100 
50 100 
50 100 
50 100 
50 100 
50 100 
50 100 
50 100 
50 100 
50 100 
50 100 
50 100 
50 100 
50 100 
50 100 
50 100 
50 100 
50 100 
50 100 
50 100 
50 100 
50 100 
50 100 
50 100 
50 100 
50 100 
50 100 
50 100 
50 100 
50 100 
50 100 
50 100 
50 100 
50 100 
50 100 
50 100 
50 100 
50 100 
50 100 
50 100 
50 100 
50 100 
50 100 
50 100 
50 100 
50 100 
50 100 
50 100 
50 100 
50 100 
50 100 
50 100 
50 100 
50 100 
50 100 
50 100 
50 100 
50 100 
50 100 
50 100 
50 100 
50 100 
50 100 
50 100 
50 100 
50 100 
50 100 
50 100 
50 100 
50 100 
50 100 
50 100 
50 100 
50 100 
50 100 
50 100 
50 100 
50 100 
50 100 
50 100 
50 100 
50 100 
50 100 
50 100 
50 100 
50 100 
50 100 
50 100 
50 100 
50 100 
50 100 
50 100 
50 100 
50 100 
50 100 
50 100 
50 100 
50 100 
50 100 
50 100 
50 100 
50 100 
50 100 
50 100 
50 100 
50 100 
50 100 
50 100 
50 100 
50 100 
50 100 
50 100 
50 100 
50 100 
50 100 
50 100 
50 100 
50 100 
50 100 
50 100 
50 100 
50 100 
50 100 
50 100 
50 100 
50 100 
50 100 
50 100 
50 100 
50 100 
50 100 
50 100 
50 100 
50 100 
50 100 
50 100 
50 100 
50 100 
50 100 
50 100 
50 100 
50 100 
50 100 
50 100 
50 100 
50 100 
50 100 
50 100 
50 100 
50 100 
50 100 
50 100 
50 100 
50 100 
50 100 
50 100 
50 100 
50 100 
50 100 
50 100 
50 100 
50 100 
50 100 
50 100 
50 100 
50 100 
50 100 
50 100 
50 100 
50 100 
50 100 
50 100 
50 100 
50 100 
50 100 
50 100 
50 100 
50 100 
50 100 
50 100 
50 100 
50 100 
50 100 
50 100 
50 100 
50 100 
50 100 
50 100 
50 100 
50 100 
50 100 
50 100 
50 100 
50 100 
